; benchmark generated from python API
(set-info :status unknown)
(declare-datatypes ((RealState 0)) (((RMk1 (rval1 Real)) (RMk2 (rval2 Real)))))
 (assert
 (forall ((|v11:0| Real) )(exists ((|v10:1_st| RealState) (val!1890 Real) )(forall ((|v9:2| Real) )(exists ((|v8:3_st| RealState) (val!1891 Real) )(forall ((|v7:4| Real) )(exists ((|v6:5_st| RealState) (val!1892 Real) )(forall ((|v5:6| Real) )(exists ((|v4:7_st| RealState) (val!1893 Real) )(forall ((|v3:8| Real) )(exists ((|v2:9_st| RealState) (val!1894 Real) )(forall ((|v1:10| Real) )(exists ((|v0:11_st| RealState) (val!1895 Real) )(let ((?x1914 (rval2 |v8:3_st|)))
 (let ((?x499 (* 14.0 ?x1914)))
 (let ((?x264 (rval2 |v0:11_st|)))
 (let ((?x2642 (* 13.0 ?x264)))
 (let (($x994 (<= (+ (+ (+ (* (- 16.0) |v9:2|) (* (- 11.0) |v9:2|)) ?x2642) ?x499) 18.0)))
 (let ((?x1641 (- 10.0)))
 (let ((?x2607 (* 18.0 |v1:10|)))
 (let ((?x2830 (+ (+ (+ (* 8.0 |v7:4|) (* (- 11.0) |v11:0|)) (* 5.0 (rval2 |v4:7_st|))) ?x2607)))
 (let ((?x1833 (- 11.0)))
 (let ((?x667 (* 12.0 |v1:10|)))
 (let ((?x326 (rval2 |v2:9_st|)))
 (let ((?x1210 (* 18.0 ?x326)))
 (let ((?x2851 (- 2.0)))
 (let ((?x2943 (+ (+ (+ (* (- 1.0) |v3:8|) (* (- 8.0) |v3:8|)) (* 17.0 ?x1914)) (* 11.0 ?x1914))))
 (let (($x2515 (and (<= ?x2943 ?x2851) (<= (+ (+ (+ (* (- 9.0) ?x326) ?x1210) ?x1210) ?x667) ?x1833))))
 (let ((?x463 (- 19.0)))
 (let ((?x2768 (* 17.0 ?x326)))
 (let (($x2542 (<= (+ (+ (+ (* ?x1641 |v11:0|) (* 5.0 |v9:2|)) (* (- 7.0) ?x326)) ?x2768) ?x463)))
 (let ((?x1982 (* 11.0 ?x326)))
 (let ((?x751 (+ (+ (+ (* 20.0 ?x1914) (* (- 15.0) ?x1914)) (* 0.0 |v11:0|)) ?x1982)))
 (let ((?x748 (+ (+ (* (- 12.0) |v11:0|) (* (- 13.0) (rval2 |v6:5_st|))) (* (- 18.0) |v9:2|))))
 (let (($x269 (and (and (<= (+ ?x748 (* ?x1833 |v3:8|)) 8.0) (or (<= ?x751 12.0) $x2542)) (or $x2515 (and (<= ?x2830 ?x1641) $x994)))))
 (let ((?x343 (+ (+ (+ (* 12.0 (rval2 |v10:1_st|)) ?x264) (* 4.0 |v7:4|)) (* 13.0 (rval2 |v10:1_st|)))))
 (let ((?x261 (rval2 |v10:1_st|)))
 (let ((?x2540 (* 4.0 ?x261)))
 (let ((?x1583 (+ (+ (+ (* 0.0 ?x1914) (* 20.0 |v7:4|)) (* (- 9.0) ?x1914)) ?x2540)))
 (let ((?x753 (- 20.0)))
 (let ((?x2319 (* ?x753 ?x261)))
 (let ((?x268 (+ (+ (* 3.0 ?x326) (* (- 4.0) ?x326)) (* (- 4.0) (rval2 |v6:5_st|)))))
 (let ((?x1969 (+ (+ (+ (* 14.0 |v3:8|) (* 11.0 |v3:8|)) (* (- 8.0) |v5:6|)) (* 10.0 |v5:6|))))
 (let (($x81 (or (or (<= ?x1969 1.0) (<= (+ ?x268 ?x2319) 7.0)) (and (<= ?x1583 12.0) (<= ?x343 7.0)))))
 (let ((?x645 (+ (+ (+ (* ?x2851 |v1:10|) (* (- 12.0) ?x261)) (* 12.0 |v9:2|)) (* 9.0 |v3:8|))))
 (let ((?x832 (- 12.0)))
 (let ((?x902 (+ (+ (* (- 14.0) |v3:8|) (* 7.0 (rval2 |v6:5_st|))) (* (- 16.0) ?x326))))
 (let ((?x1468 (+ (+ (+ (* 15.0 (rval2 |v6:5_st|)) (* 8.0 ?x1914)) (* 0.0 |v1:10|)) (* ?x832 |v1:10|))))
 (let ((?x1224 (- 15.0)))
 (let ((?x670 (* ?x1224 |v5:6|)))
 (let (($x1241 (<= (+ (+ (+ (* (- 7.0) |v9:2|) (* 12.0 ?x1914)) (* ?x832 |v11:0|)) ?x670) 11.0)))
 (let (($x1253 (and (and $x1241 (<= ?x1468 14.0)) (or (<= (+ ?x902 (* ?x753 |v9:2|)) ?x832) (<= ?x645 11.0)))))
 (let ((?x156 (+ (+ (+ (* (- 7.0) |v9:2|) (* ?x2851 (rval2 |v6:5_st|))) (* 11.0 |v5:6|)) (* (- 5.0) (rval2 |v4:7_st|)))))
 (let ((?x1438 (- 3.0)))
 (let ((?x1182 (* ?x1438 ?x326)))
 (let ((?x723 (* 18.0 ?x264)))
 (let ((?x810 (+ (+ (+ (* (- 13.0) |v9:2|) (* (- 1.0) (rval2 |v6:5_st|))) ?x723) ?x1182)))
 (let ((?x530 (* 0.0 |v1:10|)))
 (let ((?x1120 (+ (+ (+ (* 10.0 |v7:4|) (* ?x1833 (rval2 |v6:5_st|))) (* 13.0 |v3:8|)) ?x530)))
 (let ((?x769 (* 10.0 ?x264)))
 (let ((?x744 (+ (+ (+ (* (- 9.0) ?x261) (* 6.0 |v9:2|)) (* 4.0 |v7:4|)) ?x769)))
 (let (($x2489 (or (and (<= ?x744 ?x2851) (<= ?x1120 3.0)) (and (<= ?x810 ?x832) (<= ?x156 16.0)))))
 (let ((?x2502 (+ (+ (+ (* 2.0 |v5:6|) (* ?x463 (rval2 |v6:5_st|))) (* ?x463 ?x264)) (* (- 18.0) |v5:6|))))
 (let ((?x84 (- 13.0)))
 (let ((?x3017 (* 20.0 |v11:0|)))
 (let (($x1766 (<= (+ (+ (+ (* 16.0 ?x264) (* 8.0 ?x261)) (* ?x84 |v1:10|)) ?x3017) ?x84)))
 (let ((?x2253 (* 8.0 |v7:4|)))
 (let (($x784 (<= (+ (+ (+ (* 2.0 ?x326) (* 15.0 |v7:4|)) (* 7.0 |v7:4|)) ?x2253) 10.0)))
 (let ((?x1947 (- 9.0)))
 (let ((?x1674 (rval2 |v4:7_st|)))
 (let ((?x543 (* 15.0 ?x1674)))
 (let ((?x1280 (+ (+ (+ (* 16.0 ?x261) (* 11.0 |v1:10|)) (* ?x1947 (rval2 |v6:5_st|))) ?x543)))
 (let (($x1915 (and (and (and (<= ?x1280 ?x1947) $x784) (and $x1766 (<= ?x2502 12.0))) $x2489)))
 (let (($x1258 (<= (+ (+ (+ (* ?x2851 ?x261) ?x530) (* (- 6.0) |v3:8|)) (* 12.0 ?x326)) 15.0)))
 (let ((?x1551 (+ (+ (+ (* (- 8.0) |v9:2|) (* 2.0 ?x326)) (* 2.0 ?x326)) (* (- 17.0) (rval2 |v6:5_st|)))))
 (let ((?x1985 (+ (+ (+ |v9:2| (* 15.0 |v7:4|)) (* 18.0 |v7:4|)) (* (- 14.0) ?x261))))
 (let ((?x1188 (+ (+ (+ (* 6.0 ?x326) (* ?x753 |v7:4|)) (* 16.0 ?x1674)) (* (- 7.0) ?x1674))))
 (let (($x1046 (and (or (<= ?x1188 9.0) (<= ?x1985 20.0)) (or (<= ?x1551 3.0) $x1258))))
 (let ((?x2744 (- 16.0)))
 (let ((?x99 (+ (+ (* (- 5.0) ?x261) (* ?x1438 (rval2 |v6:5_st|))) (* (- 5.0) |v7:4|))))
 (let ((?x2695 (+ (+ (+ (* 2.0 |v5:6|) (* 19.0 (rval2 |v6:5_st|))) (* 17.0 ?x264)) (* 6.0 (rval2 |v6:5_st|)))))
 (let ((?x246 (+ (+ (+ ?x769 (* 15.0 (rval2 |v6:5_st|))) (* 3.0 ?x1674)) (* (- 8.0) |v7:4|))))
 (let (($x1092 (and (or (<= ?x246 ?x2851) (<= ?x2695 18.0)) (<= (+ ?x99 (* 0.0 |v3:8|)) ?x2744))))
 (let (($x1578 (<= (+ (+ (+ ?x499 (* ?x2744 ?x1674)) (* ?x2744 |v11:0|)) (* (- 7.0) |v1:10|)) 4.0)))
 (let ((?x984 (* 7.0 |v1:10|)))
 (let (($x1189 (<= (+ (+ (+ (* 6.0 |v1:10|) (* 5.0 ?x326)) (* 6.0 ?x326)) ?x984) 16.0)))
 (let ((?x404 (+ (+ (+ (* 0.0 (rval2 |v6:5_st|)) (* 3.0 ?x264)) (* ?x1641 |v5:6|)) (* (- 14.0) |v11:0|))))
 (let ((?x515 (- 4.0)))
 (let ((?x1053 (* 13.0 |v7:4|)))
 (let ((?x555 (+ (+ (* 17.0 |v7:4|) (* (- 5.0) ?x1914)) (* (- 6.0) (rval2 |v6:5_st|)))))
 (let ((?x2198 (- 14.0)))
 (let ((?x2349 (* ?x832 ?x261)))
 (let ((?x2010 (+ (+ (+ (* (- 6.0) |v5:6|) (* ?x753 (rval2 |v6:5_st|))) (* ?x1833 ?x326)) ?x2349)))
 (let (($x2238 (<= (+ (+ (+ (* 18.0 |v9:2|) ?x530) (* 5.0 ?x261)) (* 7.0 |v7:4|)) 4.0)))
 (let ((?x2456 (* 5.0 |v7:4|)))
 (let (($x1925 (<= (+ (+ (+ (* 5.0 ?x326) (* ?x84 |v9:2|)) (* ?x1438 |v7:4|)) ?x2456) 2.0)))
 (let ((?x2156 (- 7.0)))
 (let (($x1056 (<= (+ (+ (+ ?x2319 ?x264) (* 12.0 ?x261)) (* (- 1.0) |v11:0|)) ?x2156)))
 (let (($x255 (or (or (and $x1056 $x1925) (or $x2238 (<= ?x2010 ?x2198))) (and (and (<= (+ ?x555 ?x1053) ?x515) (<= ?x404 12.0)) (or $x1189 $x1578)))))
 (let (($x1723 (<= (+ (+ (+ (* (- 1.0) |v11:0|) (* 8.0 ?x1674)) |v3:8|) (* ?x2198 |v1:10|)) ?x2744)))
 (let ((?x1822 (* 15.0 |v1:10|)))
 (let (($x1221 (<= (+ (+ (+ (* 16.0 ?x261) (* (- 17.0) |v5:6|)) (* ?x84 ?x326)) ?x1822) 6.0)))
 (let ((?x317 (+ (+ (+ (* 2.0 (rval2 |v6:5_st|)) (* ?x2198 ?x1914)) (* ?x2851 ?x326)) (* (- 6.0) |v9:2|))))
 (let ((?x291 (- 8.0)))
 (let ((?x591 (+ (+ (+ (* 18.0 |v5:6|) (* 0.0 ?x264)) (* ?x463 |v11:0|)) (* 11.0 |v11:0|))))
 (let ((?x50 (- 6.0)))
 (let (($x1130 (<= (+ (+ (+ ?x530 (* ?x1947 ?x264)) (* 6.0 |v11:0|)) (* 20.0 ?x1674)) ?x50)))
 (let (($x2537 (or (<= (+ (+ (+ (* ?x1833 ?x264) ?x769) (* ?x1833 ?x261)) ?x2253) 4.0) $x1130)))
 (let ((?x2089 (+ (+ (+ (* ?x1833 ?x1674) (* 2.0 ?x261)) (* 4.0 |v7:4|)) (* ?x84 ?x261))))
 (let ((?x1744 (* 13.0 |v3:8|)))
 (let ((?x1149 (+ (+ (+ (* 11.0 (rval2 |v6:5_st|)) (* 13.0 (rval2 |v6:5_st|))) ?x1744) ?x1182)))
 (let (($x1741 (or (and (and (<= ?x1149 8.0) (<= ?x2089 ?x753)) $x2537) (or (and (<= ?x591 ?x291) (<= ?x317 ?x1641)) (or $x1221 $x1723)))))
 (let (($x78 (<= (+ (+ (+ ?x326 (* 17.0 (rval2 |v6:5_st|))) ?x2768) (* 13.0 |v11:0|)) 3.0)))
 (let (($x1111 (or (or $x78 (and $x1741 $x255)) (and (or (and $x1092 $x1046) $x1915) (or (or $x1253 $x81) $x269)))))
 (let (($x1423 (not (= |v0:11_st| (RMk1 val!1895)))))
 (let (($x937 (not (= |v2:9_st| (RMk1 val!1894)))))
 (let (($x1277 (not (= |v4:7_st| (RMk1 val!1893)))))
 (let (($x1151 (not (= |v6:5_st| (RMk1 val!1892)))))
 (let (($x1011 (not (= |v8:3_st| (RMk1 val!1891)))))
 (let (($x439 (not (= |v10:1_st| (RMk1 val!1890)))))
 (and $x439 $x1011 $x1151 $x1277 $x937 $x1423 $x1111)))))))))))))))))))))))))))))))))))))))))))))))))))))))))))))))))))))))))))))))))))))))))))))))))))))))))))))
 )
 )
 )
 )
 )
 )
 )
 )
 )
 )
 )
 )
(check-sat)
